<number of tasks>
50

<cycle time>
1000

<order strength>
0.901


<task times>
1 631
2 139
3 443
4 666
5 604
6 708
7 452
8 651
9 488
10 405
11 473
12 503
13 368
14 297
15 594
16 603
17 518
18 369
19 559
20 606
21 452
22 599
23 527
24 502
25 509
26 386
27 376
28 414
29 537
30 653
31 467
32 503
33 457
34 422
35 540
36 344
37 505
38 665
39 587
40 487
41 657
42 497
43 568
44 518
45 483
46 492
47 705
48 492
49 567
50 553

<precedence relations>
1,4
1,5
2,4
2,5
3,4
3,5
4,6
4,7
4,8
5,6
5,7
5,8
6,9
6,10
6,11
6,12
7,9
7,10
7,11
7,12
8,9
8,10
8,11
8,12
9,13
10,13
11,13
12,13
13,14
13,15
13,16
14,17
14,18
14,19
15,17
15,18
15,19
16,17
16,18
16,19
17,20
17,21
18,20
18,21
19,20
19,21
20,22
20,23
20,24
21,22
21,23
21,24
22,25
22,26
23,25
23,26
24,25
25,27
25,28
25,29
25,30
26,27
26,28
26,29
26,30
27,31
27,32
27,33
27,34
28,31
28,36
29,32
30,34
30,41
30,42
30,46
31,37
31,38
31,39
32,35
32,36
33,35
33,36
34,39
35,37
35,38
35,39
36,40
36,41
37,40
37,41
37,42
38,40
38,41
38,42
40,43
40,48
41,44
41,45
42,44
43,46
44,47
44,48
47,49
47,50
48,49

<end>
